SCIP version 5.0.0 [precision: 8 byte] [memory: block] [mode: optimized] [LP solver: NONE] [GitHash: 3bbd232]
Copyright (C) 2002-2017 Konrad-Zuse-Zentrum fuer Informationstechnik Berlin (ZIB)

External codes: 
  Readline EditLine w  GNU library for command line editing (gnu.org/s/readline)
  CppAD 20160000.1     Algorithmic Differentiation of C++ algorithms developed by B. Bell (www.coin-or.org/CppAD)
  ZLIB 1.2.5           General purpose compression library by J. Gailly and M. Adler (zlib.net)
  GMP 6.1.2            GNU Multiple Precision Arithmetic Library developed by T. Granlund (gmplib.org)

user parameter file <scip.set> not found - using default parameters

read problem <../../Split_data/output/seismic-bumps/0/3_sample_seismic-bumps.logreg>
============

File name	:	../../Split_data/output/seismic-bumps/0/3_sample_seismic-bumps.logreg
Problem name 	:	3_sample_seismic-bumps
Number of data	:	2067
Number of var	:	21
The given data has linear dependence
4 sets of column vector are linearly dependent:
{ 2 3}, { 4 5 6}, { 7 8}, { 13 14 15}, 

[dim=1] time: 0.036291
[dim=2] time: 0.072561
[dim=3] time: 0.105774
[dim=4] time: 0.136307
[dim=5] time: 0.166195
[dim=6] time: 0.183321
[dim=7] time: 0.199346
[dim=8] Time of forward = 0.214316sec.
AIC: 872.268
k: 7

[dim=17] time: 0.081436
[dim=16] time: 0.105169
[dim=15] time: 0.137206
[dim=14] time: 0.166337
[dim=13] time: 0.187576
[dim=12] time: 0.203029
[dim=11] time: 0.222675
[dim=10] Time of backward = 0.248767sec.
AIC: 874.025
k: 11
